NAME : lim963
COMMENT : Bonn VLSI data set with 963 points
COMMENT : Uni Bonn, Research Institute for Discrete Math
COMMENT : Contributed by Andre Rohe
TYPE : TSP
DIMENSION : 963
EDGE_WEIGHT_TYPE : EUC_2D
NODE_COORD_SECTION
1 0 10
2 0 100
3 0 115
4 0 130
5 0 134
6 0 140
7 0 142
8 0 143
9 0 144
10 0 25
11 0 40
12 0 55
13 0 70
14 0 73
15 0 75
16 0 77
17 0 79
18 0 83
19 0 85
20 0 88
21 2 101
22 2 102
23 2 103
24 2 110
25 2 117
26 2 12
27 2 120
28 2 122
29 2 125
30 2 126
31 2 127
32 2 137
33 2 139
34 2 14
35 2 16
36 2 32
37 2 34
38 2 36
39 2 38
40 2 41
41 2 48
42 2 55
43 2 61
44 2 62
45 2 64
46 2 65
47 2 68
48 2 7
49 2 75
50 2 76
51 2 77
52 2 78
53 2 81
54 2 82
55 2 83
56 2 84
57 2 87
58 2 89
59 2 9
60 2 92
61 2 94
62 2 96
63 2 98
64 5 117
65 5 121
66 5 17
67 5 21
68 5 27
69 5 32
70 5 34
71 5 36
72 5 38
73 5 7
74 5 88
75 5 9
76 5 92
77 5 94
78 5 96
79 5 98
80 9 100
81 9 119
82 9 124
83 9 18
84 9 86
85 10 109
86 10 116
87 10 119
88 10 16
89 10 18
90 10 31
91 10 40
92 10 47
93 10 54
94 10 6
95 10 67
96 10 86
97 10 91
98 11 104
99 11 109
100 11 116
101 11 119
102 11 128
103 11 133
104 11 16
105 11 18
106 11 31
107 11 40
108 11 47
109 11 54
110 11 6
111 11 67
112 11 86
113 11 91
114 12 18
115 15 117
116 15 17
117 15 21
118 15 27
119 15 32
120 15 34
121 15 36
122 15 38
123 15 7
124 15 9
125 15 92
126 15 94
127 15 96
128 15 98
129 16 110
130 16 41
131 16 48
132 16 55
133 16 68
134 17 12
135 17 14
136 17 62
137 17 65
138 17 75
139 17 76
140 17 77
141 17 78
142 17 81
143 17 82
144 17 83
145 17 84
146 18 19
147 18 21
148 18 22
149 18 23
150 18 25
151 18 27
152 18 28
153 18 29
154 25 110
155 25 112
156 25 113
157 25 116
158 25 117
159 25 12
160 25 120
161 25 122
162 25 124
163 25 126
164 25 129
165 25 131
166 25 133
167 25 135
168 25 19
169 25 22
170 25 23
171 25 24
172 25 30
173 25 32
174 25 33
175 25 35
176 25 37
177 25 39
178 25 42
179 25 44
180 25 46
181 25 47
182 25 50
183 25 52
184 25 54
185 25 56
186 25 59
187 25 60
188 25 61
189 25 68
190 25 7
191 25 70
192 25 74
193 25 76
194 25 78
195 25 80
196 25 83
197 25 85
198 25 87
199 25 89
200 25 9
201 28 100
202 28 106
203 28 113
204 28 117
205 28 121
206 28 125
207 28 130
208 28 134
209 28 140
210 28 19
211 28 31
212 28 42
213 28 45
214 28 50
215 28 52
216 28 54
217 28 56
218 28 69
219 28 7
220 28 75
221 28 79
222 28 83
223 28 85
224 28 87
225 28 89
226 28 9
227 28 94
228 31 110
229 32 110
230 32 113
231 32 117
232 32 119
233 32 128
234 32 21
235 32 58
236 32 67
237 32 73
238 32 91
239 33 11
240 33 111
241 33 115
242 33 119
243 33 128
244 33 18
245 33 30
246 33 41
247 33 44
248 33 49
249 33 6
250 33 67
251 33 73
252 33 82
253 33 91
254 34 11
255 34 110
256 34 119
257 34 128
258 34 18
259 34 25
260 34 30
261 34 37
262 34 41
263 34 44
264 34 49
265 34 6
266 34 62
267 34 67
268 34 73
269 34 82
270 34 91
271 35 137
272 35 91
273 38 100
274 38 106
275 38 112
276 38 116
277 38 140
278 38 19
279 38 31
280 38 42
281 38 45
282 38 50
283 38 52
284 38 54
285 38 56
286 38 7
287 38 83
288 38 85
289 38 87
290 38 89
291 38 9
292 38 94
293 39 12
294 40 33
295 40 34
296 40 35
297 40 47
298 41 100
299 41 102
300 41 104
301 41 105
302 41 107
303 41 108
304 41 92
305 41 94
306 41 96
307 41 98
308 48 101
309 48 105
310 48 107
311 48 109
312 48 11
313 48 111
314 48 114
315 48 116
316 48 118
317 48 120
318 48 122
319 48 124
320 48 127
321 48 129
322 48 13
323 48 131
324 48 133
325 48 15
326 48 18
327 48 21
328 48 23
329 48 25
330 48 27
331 48 29
332 48 31
333 48 32
334 48 35
335 48 36
336 48 37
337 48 38
338 48 39
339 48 41
340 48 46
341 48 47
342 48 48
343 48 55
344 48 60
345 48 62
346 48 64
347 48 66
348 48 69
349 48 71
350 48 73
351 48 75
352 48 78
353 48 80
354 48 82
355 48 84
356 48 87
357 48 89
358 48 91
359 48 93
360 48 96
361 48 98
362 51 101
363 51 103
364 51 106
365 51 110
366 51 115
367 51 119
368 51 123
369 51 127
370 51 129
371 51 131
372 51 133
373 51 137
374 51 141
375 51 16
376 51 18
377 51 22
378 51 26
379 51 32
380 51 56
381 51 61
382 51 65
383 51 69
384 51 7
385 51 71
386 51 73
387 51 75
388 51 79
389 51 83
390 51 87
391 51 89
392 51 91
393 51 93
394 51 96
395 51 98
396 54 29
397 55 104
398 55 113
399 55 20
400 55 29
401 55 32
402 55 45
403 55 59
404 55 77
405 56 100
406 56 104
407 56 113
408 56 126
409 56 15
410 56 17
411 56 20
412 56 30
413 56 55
414 56 59
415 56 68
416 56 77
417 56 86
418 56 95
419 57 100
420 57 104
421 57 113
422 57 126
423 57 135
424 57 15
425 57 17
426 57 20
427 57 29
428 57 41
429 57 49
430 57 5
431 57 55
432 57 59
433 57 68
434 57 77
435 57 86
436 57 95
437 58 138
438 61 101
439 61 103
440 61 127
441 61 129
442 61 131
443 61 133
444 61 141
445 61 16
446 61 18
447 61 31
448 61 56
449 61 69
450 61 71
451 61 73
452 61 75
453 61 87
454 61 89
455 61 91
456 61 93
457 61 96
458 61 98
459 63 11
460 63 13
461 64 35
462 64 36
463 64 38
464 64 39
465 66 0
466 67 0
467 68 0
468 69 0
469 70 0
470 71 0
471 71 10
472 71 100
473 71 102
474 71 104
475 71 106
476 71 108
477 71 111
478 71 112
479 71 113
480 71 114
481 71 115
482 71 117
483 71 122
484 71 124
485 71 126
486 71 128
487 71 13
488 71 130
489 71 132
490 71 135
491 71 15
492 71 18
493 71 22
494 71 24
495 71 26
496 71 28
497 71 29
498 71 32
499 71 34
500 71 35
501 71 39
502 71 41
503 71 43
504 71 50
505 71 54
506 71 55
507 71 58
508 71 6
509 71 60
510 71 61
511 71 65
512 71 68
513 71 70
514 71 71
515 71 73
516 71 74
517 71 78
518 71 79
519 71 82
520 71 84
521 71 86
522 71 88
523 71 92
524 71 95
525 71 97
526 72 0
527 73 0
528 74 0
529 74 100
530 74 103
531 74 107
532 74 11
533 74 123
534 74 127
535 74 131
536 74 135
537 74 139
538 74 14
539 74 18
540 74 23
541 74 29
542 74 39
543 74 41
544 74 43
545 74 48
546 74 50
547 74 59
548 74 66
549 74 69
550 74 82
551 74 84
552 74 86
553 74 88
554 74 92
555 74 96
556 75 0
557 76 0
558 77 0
559 77 26
560 78 101
561 78 12
562 78 121
563 78 21
564 78 26
565 78 29
566 78 94
567 79 10
568 79 101
569 79 12
570 79 121
571 79 17
572 79 21
573 79 27
574 79 31
575 79 38
576 79 49
577 79 58
578 79 65
579 79 68
580 79 81
581 79 91
582 79 94
583 80 10
584 80 101
585 80 117
586 80 12
587 80 121
588 80 17
589 80 21
590 80 26
591 80 38
592 80 49
593 80 58
594 80 65
595 80 68
596 80 81
597 80 91
598 80 94
599 81 136
600 81 45
601 84 11
602 84 139
603 84 18
604 84 28
605 84 32
606 84 39
607 84 41
608 84 43
609 84 48
610 84 50
611 84 59
612 84 66
613 84 69
614 84 82
615 84 84
616 84 86
617 84 88
618 84 92
619 86 34
620 86 35
621 86 54
622 86 55
623 86 6
624 86 61
625 86 71
626 86 74
627 86 79
628 87 111
629 87 112
630 87 114
631 87 115
632 94 11
633 94 127
634 94 129
635 94 13
636 94 131
637 94 133
638 94 135
639 94 17
640 94 20
641 94 21
642 94 22
643 94 30
644 94 32
645 94 48
646 94 51
647 94 52
648 94 57
649 94 59
650 94 62
651 94 64
652 94 66
653 94 68
654 94 70
655 94 74
656 94 79
657 94 81
658 94 83
659 94 85
660 94 87
661 97 101
662 97 109
663 97 11
664 97 117
665 97 125
666 97 127
667 97 129
668 97 13
669 97 131
670 97 133
671 97 135
672 97 137
673 97 141
674 97 18
675 97 31
676 97 37
677 97 43
678 97 48
679 97 50
680 97 58
681 97 62
682 97 64
683 97 66
684 97 68
685 97 7
686 97 70
687 97 74
688 97 76
689 97 79
690 97 81
691 97 83
692 97 85
693 97 87
694 97 93
695 100 103
696 100 111
697 100 119
698 100 89
699 100 95
700 101 103
701 101 111
702 101 119
703 101 19
704 101 29
705 101 34
706 101 56
707 101 89
708 101 95
709 102 10
710 102 103
711 102 111
712 102 119
713 102 126
714 102 17
715 102 29
716 102 34
717 102 47
718 102 56
719 102 63
720 102 73
721 102 78
722 102 89
723 102 95
724 103 10
725 103 104
726 103 112
727 103 120
728 103 126
729 103 17
730 103 23
731 103 29
732 103 34
733 103 47
734 103 5
735 103 56
736 103 63
737 103 73
738 103 78
739 103 89
740 103 96
741 104 138
742 104 34
743 104 89
744 107 11
745 107 127
746 107 129
747 107 13
748 107 131
749 107 133
750 107 135
751 107 137
752 107 141
753 107 18
754 107 37
755 107 43
756 107 48
757 107 50
758 107 64
759 107 66
760 107 68
761 107 70
762 107 74
763 107 76
764 107 79
765 107 81
766 107 83
767 107 85
768 107 87
769 109 52
770 110 101
771 110 103
772 110 107
773 110 109
774 110 111
775 110 115
776 110 117
777 110 119
778 110 123
779 110 124
780 110 35
781 110 37
782 110 38
783 110 39
784 110 41
785 110 43
786 110 44
787 110 45
788 110 91
789 110 93
790 110 95
791 110 99
792 117 11
793 117 111
794 117 113
795 117 115
796 117 117
797 117 120
798 117 122
799 117 124
800 117 126
801 117 129
802 117 13
803 117 131
804 117 133
805 117 135
806 117 16
807 117 19
808 117 20
809 117 21
810 117 22
811 117 23
812 117 25
813 117 30
814 117 37
815 117 39
816 117 41
817 117 43
818 117 46
819 117 48
820 117 51
821 117 53
822 117 56
823 117 59
824 117 61
825 117 64
826 117 66
827 117 68
828 117 70
829 117 74
830 117 82
831 117 84
832 117 86
833 117 88
834 117 91
835 117 94
836 120 100
837 120 106
838 120 111
839 120 113
840 120 115
841 120 117
842 120 120
843 120 122
844 120 124
845 120 126
846 120 129
847 120 131
848 120 133
849 120 135
850 120 139
851 120 37
852 120 39
853 120 41
854 120 43
855 120 57
856 120 60
857 120 64
858 120 66
859 120 68
860 120 7
861 120 70
862 120 74
863 120 76
864 120 80
865 120 83
866 120 87
867 120 91
868 120 94
869 120 96
870 124 58
871 124 81
872 124 97
873 125 110
874 125 119
875 125 128
876 125 29
877 125 36
878 125 56
879 125 58
880 125 63
881 125 73
882 125 81
883 125 90
884 125 93
885 125 97
886 126 110
887 126 119
888 126 128
889 126 137
890 126 25
891 126 29
892 126 36
893 126 5
894 126 56
895 126 58
896 126 63
897 126 73
898 126 81
899 126 90
900 126 93
901 126 97
902 127 77
903 127 97
904 130 100
905 130 106
906 130 111
907 130 113
908 130 115
909 130 117
910 130 120
911 130 122
912 130 124
913 130 126
914 130 129
915 130 131
916 130 133
917 130 135
918 130 37
919 130 39
920 130 41
921 130 43
922 130 57
923 130 64
924 130 66
925 130 68
926 130 70
927 130 74
928 130 76
929 130 80
930 130 91
931 130 94
932 130 96
933 131 30
934 132 11
935 132 13
936 132 16
937 132 46
938 132 48
939 132 51
940 132 53
941 133 100
942 133 102
943 133 104
944 133 106
945 133 108
946 133 19
947 133 20
948 133 22
949 133 23
950 133 98
951 143 134
952 143 135
953 143 140
954 143 142
955 143 143
956 143 144
957 143 73
958 143 75
959 143 77
960 143 79
961 143 83
962 143 85
963 143 88
EOF
